<number of tasks>
30

<cycle time>
41

<task times>
1 8
2 7
3 19
4 10
5 2
6 6
7 14
8 10
9 1
10 4
11 14
12 15
13 5
14 12
15 9
16 10
17 2
18 10
19 18
20 16
21 21
22 14
23 16
24 7
25 17
26 9
27 25
28 7
29 14
30 2

<task process alternatives>
1: 7,15 ; 10,8
2: 6,15 ; 9,8
3: 16,15 ; 23,8
4: 8,15 ; 12,8
5: 2,15 ; 3,8
6: 5,15 ; 8,8
7: 12,15 ; 17,8
8: 8,15 ; 12,8
9: 1,15 ; 2,8
10: 4,15 ; 5,8
11: 12,15 ; 17,8
12: 12,15 ; 18,8
13: 4,15 ; 6,8
14: 10,15 ; 15,8
15: 8,15 ; 11,8
16: 8,15 ; 12,8
17: 2,15 ; 3,8
18: 8,15 ; 12,8
19: 15,15 ; 22,8
20: 13,15 ; 20,8
21: 17,15 ; 26,8
22: 12,15 ; 17,8
23: 13,15 ; 20,8
24: 6,15 ; 9,8
25: 14,15 ; 21,8
26: 8,15 ; 11,8
27: 20,15 ; 30,8
28: 6,15 ; 9,8
29: 12,15 ; 17,8
30: 2,15 ; 3,8

<incompatible tasks>
24,26
21,6
12,15
12,28

<precedence relations>
16,20
26,27
12,13
21,22
3,16
22,23
8,9
17,18
2,11
27,28
25,26
9,26
13,14
10,24
18,19
5,6
14,15
23,27
1,5
6,7
24,25
15,22
4,7
20,21
29,30
20,24
3,17
14,20
1,4
2,12
27,29
7,8

<number of task attributes>
3

<task attribute values>
1,1:70
1,2:99
1,3:92
2,1:22
2,2:59
2,3:32
3,2:27
3,3:25
4,1:69
4,2:88
4,3:76
5,1:91
5,2:94
5,3:2
6,1:7
6,2:4
6,3:35
7,1:2
7,2:2
7,3:1
8,1:80
8,2:37
8,3:13
9,1:48
9,2:51
9,3:29
10,1:1
10,2:1
10,3:40
11,1:22
11,3:5
12,1:19
12,2:7
12,3:20
13,1:6
15,3:19
16,3:3
17,1:1
17,3:2
19,1:51
19,2:4
19,3:6
20,1:10
20,2:6
20,3:5
21,1:1
21,2:2
21,3:61
22,1:15
22,2:10
22,3:18
23,1:32
23,2:92
23,3:7
24,1:18
24,2:38
24,3:9
25,1:29
25,2:5
25,3:40
26,1:3
26,2:14
26,3:5
27,1:7
27,2:7
27,3:59
28,1:36
28,2:49
28,3:84
29,1:10
29,2:33
29,3:2
30,1:2
30,2:8

<attribute bounds per station>
1:100
2:100
3:100

<linked tasks>
1,14
6,10
8,21
10,16
28,29

<incompatible tasks>
1,3
2,6
2,20
3,19
3,20
3,24
4,11
4,15
5,7
5,8
5,23
5,27
6,11
7,9
7,10
8,9
9,14
10,25
11,15
11,18
11,20
11,21
12,18
13,18
13,29
14,19
14,27
14,30
15,19
16,24
16,28
17,25
18,20
19,25
20,22
21,29
25,27
26,30
27,28

<optimal SALBP-1 value>
8

<rand seed>
236278236

<end>
